c SAT problem
p wcnf 48 189
1 -60 75 0
1 60 3120 0
1 60 -3165 0
1 -60 3135 0
1 75 3120 0
1 -90 -105 0
1 90 3150 0
1 105 3105 0
1 -105 3060 0
1 105 90 0
1 -3120 3121 0
1 -3120 181 0
1 -3120 120 0
1 -3120 90 0
1 3135 -196 0
1 3135 -165 0
1 -3135 135 0
1 -3135 105 0
1 3135 75 0
1 -3135 -150 0
1 -3135 120 0
1 3135 60 0
1 -3150 -196 0
1 -3150 -166 0
1 -3150 136 0
1 -3150 -105 0
1 -3150 3151 0
1 3150 90 0
1 -3150 3165 0
1 3165 166 0
1 -3165 3150 0
1 3165 -181 0
1 3165 90 0
1 -3165 -60 0
1 -120 3105 0
1 120 3060 0
1 120 3135 0
1 135 3105 0
1 135 3075 0
1 -135 136 0
1 -135 3120 0
1 135 -3060 0
1 -150 3105 0
1 -150 3075 0
1 150 151 0
1 -165 -3105 0
1 165 -3045 0
1 -165 3015 0
1 165 3030 0
1 -165 3000 0
1 -3060 225 0
1 -3060 195 0
1 3060 -3075 0
1 3060 135 0
1 -3060 240 0
1 -3060 -180 0
1 3060 255 0
1 -3075 225 0
1 3075 195 0
1 -3075 -105 0
1 -3075 180 0
1 -3075 -3060 0
1 3075 -90 0
1 3075 255 0
1 3090 -165 0
1 -3090 135 0
1 3090 -240 0
1 3090 -211 0
1 3090 90 0
1 -3105 -226 0
1 -3105 105 0
1 3105 3090 0
1 -3105 -181 0
1 -3105 120 0
1 3105 255 0
1 180 -195 0
1 180 3045 0
1 -180 -3060 0
1 -180 3030 0
1 195 3075 0
1 195 -3045 0
1 210 -3060 0
1 -210 3000 0
1 -225 -3075 0
1 -225 210 0
1 225 3000 0
1 3000 -225 0
1 3000 -195 0
1 -3000 -165 0
1 3000 -3015 0
1 3000 -210 0
1 3000 150 0
1 3015 195 0
1 -3015 -165 0
1 3015 210 0
1 -3015 -180 0
1 -3030 -195 0
1 -3030 -240 0
1 -3030 -150 0
1 3045 -225 0
1 -3045 210 0
1 -3045 -150 0
1 3045 3030 0
1 -121 -136 0
1 -121 3165 0
1 136 3270 0
1 -136 -3255 0
1 -151 3270 0
1 151 3150 0
1 151 -3285 0
1 -151 -3225 0
1 -151 3195 0
1 166 -3240 0
1 166 3285 0
1 166 151 0
1 166 -3225 0
1 -3240 196 0
1 -3240 -121 0
1 3255 226 0
1 3255 -196 0
1 -3255 166 0
1 -3270 -151 0
1 3285 3270 0
1 -3285 -151 0
1 -181 196 0
1 181 -3240 0
1 181 -180 0
1 -181 -3225 0
1 181 3165 0
1 196 3240 0
1 196 3150 0
1 196 3090 0
1 -196 3195 0
1 196 -3165 0
1 211 3105 0
1 211 3255 0
1 211 -3195 0
1 -226 -3105 0
1 226 3210 0
1 226 3180 0
1 -226 3090 0
1 226 211 0
1 -226 -3225 0
1 -226 -3166 0
1 3180 226 0
1 -3180 -166 0
1 3180 -181 0
1 -3180 285 0
1 -3180 -255 0
1 -3195 -226 0
1 3195 -196 0
1 -3195 166 0
1 -3195 -285 0
1 3195 -255 0
1 3210 166 0
1 -3210 151 0
1 -3225 196 0
1 3225 166 0
1 3225 -3210 0
1 -3225 211 0
1 -240 3136 0
1 240 -3105 0
1 240 -3151 0
1 240 3121 0
1 -240 -3060 0
1 -240 -3166 0
1 240 -255 0
1 -255 -3136 0
1 255 -240 0
1 -255 3121 0
1 255 -3030 0
1 -255 -3166 0
1 -270 3045 0
1 270 3121 0
1 270 285 0
1 -285 -3045 0
1 285 -3180 0
1 -285 -3151 0
1 -285 3195 0
1 -3121 -240 0
1 -3121 -285 0
1 -3136 3121 0
1 -3136 3135 0
1 -3136 255 0
1 3151 3166 0
1 -3151 -255 0
1 -3166 226 0
1 -3166 -3165 0
1 3166 285 0
